2586.34
0 6 9 2 1 10 5 3 4 17 18 16 13 27 0
0 7 8 23 11 14 19 12 21 0
0 31 30 52 22 24 15 0
0 43 37 46 40 33 41 28 44 25 26 0
0 35 45 36 67 29 58 32 0
0 38 47 39 42 59 55 0
0 51 57 62 53 49 56 48 54 60 68 65 64 0
0 63 34 69 72 61 0
0 70 71 66 75 20 0
0 74 73 50 0
